c colouring generated by benchmark framework
p edge 500 58862
v 1 28
v 2 17
v 3 105
v 4 41
v 5 62
v 6 40
v 7 43
v 8 75
v 9 126
v 10 59
v 11 25
v 12 81
v 13 8
v 14 131
v 15 34
v 16 3
v 17 15
v 18 85
v 19 80
v 20 78
v 21 29
v 22 35
v 23 113
v 24 115
v 25 125
v 26 27
v 27 26
v 28 52
v 29 90
v 30 14
v 31 100
v 32 88
v 33 122
v 34 81
v 35 63
v 36 50
v 37 67
v 38 26
v 39 110
v 40 23
v 41 24
v 42 32
v 43 24
v 44 47
v 45 7
v 46 68
v 47 36
v 48 89
v 49 11
v 50 11
v 51 115
v 52 67
v 53 23
v 54 1
v 55 23
v 56 123
v 57 23
v 58 120
v 59 61
v 60 32
v 61 27
v 62 9
v 63 123
v 64 11
v 65 58
v 66 55
v 67 104
v 68 114
v 69 98
v 70 53
v 71 24
v 72 67
v 73 60
v 74 41
v 75 60
v 76 38
v 77 130
v 78 66
v 79 39
v 80 69
v 81 95
v 82 28
v 83 44
v 84 66
v 85 14
v 86 79
v 87 35
v 88 14
v 89 3
v 90 14
v 91 77
v 92 127
v 93 72
v 94 90
v 95 106
v 96 22
v 97 41
v 98 91
v 99 61
v 100 12
v 101 37
v 102 98
v 103 65
v 104 128
v 105 14
v 106 1
v 107 71
v 108 33
v 109 46
v 110 49
v 111 43
v 112 130
v 113 11
v 114 82
v 115 125
v 116 98
v 117 115
v 118 47
v 119 47
v 120 109
v 121 64
v 122 23
v 123 22
v 124 21
v 125 96
v 126 74
v 127 51
v 128 93
v 129 127
v 130 45
v 131 6
v 132 94
v 133 90
v 134 74
v 135 118
v 136 77
v 137 39
v 138 11
v 139 44
v 140 13
v 141 100
v 142 121
v 143 5
v 144 112
v 145 63
v 146 37
v 147 108
v 148 70
v 149 82
v 150 17
v 151 103
v 152 18
v 153 84
v 154 5
v 155 21
v 156 68
v 157 102
v 158 101
v 159 111
v 160 27
v 161 13
v 162 4
v 163 132
v 164 21
v 165 99
v 166 8
v 167 7
v 168 56
v 169 12
v 170 1
v 171 32
v 172 103
v 173 60
v 174 92
v 175 12
v 176 107
v 177 122
v 178 25
v 179 53
v 180 86
v 181 30
v 182 13
v 183 129
v 184 75
v 185 19
v 186 31
v 187 28
v 188 29
v 189 31
v 190 0
v 191 101
v 192 57
v 193 7
v 194 66
v 195 119
v 196 87
v 197 46
v 198 87
v 199 57
v 200 42
v 201 6
v 202 88
v 203 34
v 204 7
v 205 97
v 206 120
v 207 19
v 208 116
v 209 77
v 210 125
v 211 51
v 212 61
v 213 95
v 214 92
v 215 7
v 216 4
v 217 55
v 218 18
v 219 70
v 220 121
v 221 39
v 222 83
v 223 131
v 224 9
v 225 62
v 226 1
v 227 130
v 228 17
v 229 73
v 230 34
v 231 89
v 232 113
v 233 2
v 234 36
v 235 3
v 236 19
v 237 106
v 238 83
v 239 102
v 240 6
v 241 50
v 242 31
v 243 46
v 244 30
v 245 33
v 246 40
v 247 64
v 248 49
v 249 29
v 250 100
v 251 26
v 252 104
v 253 96
v 254 22
v 255 87
v 256 69
v 257 116
v 258 6
v 259 22
v 260 30
v 261 130
v 262 5
v 263 75
v 264 40
v 265 85
v 266 70
v 267 43
v 268 93
v 269 102
v 270 49
v 271 54
v 272 105
v 273 57
v 274 8
v 275 42
v 276 44
v 277 83
v 278 126
v 279 112
v 280 9
v 281 24
v 282 91
v 283 62
v 284 24
v 285 52
v 286 102
v 287 44
v 288 80
v 289 111
v 290 55
v 291 31
v 292 110
v 293 81
v 294 84
v 295 91
v 296 27
v 297 38
v 298 117
v 299 96
v 300 3
v 301 65
v 302 117
v 303 53
v 304 17
v 305 76
v 306 80
v 307 2
v 308 20
v 309 32
v 310 12
v 311 84
v 312 56
v 313 52
v 314 48
v 315 118
v 316 39
v 317 105
v 318 94
v 319 46
v 320 21
v 321 59
v 322 54
v 323 41
v 324 128
v 325 85
v 326 26
v 327 2
v 328 91
v 329 20
v 330 106
v 331 65
v 332 24
v 333 61
v 334 73
v 335 117
v 336 121
v 337 56
v 338 119
v 339 1
v 340 74
v 341 78
v 342 73
v 343 16
v 344 81
v 345 92
v 346 124
v 347 97
v 348 15
v 349 30
v 350 109
v 351 84
v 352 15
v 353 36
v 354 107
v 355 25
v 356 20
v 357 96
v 358 57
v 359 39
v 360 42
v 361 72
v 362 97
v 363 98
v 364 99
v 365 8
v 366 18
v 367 38
v 368 33
v 369 95
v 370 4
v 371 47
v 372 99
v 373 59
v 374 2
v 375 94
v 376 48
v 377 69
v 378 28
v 379 0
v 380 112
v 381 71
v 382 54
v 383 15
v 384 113
v 385 42
v 386 104
v 387 108
v 388 20
v 389 56
v 390 51
v 391 51
v 392 101
v 393 131
v 394 116
v 395 1
v 396 76
v 397 18
v 398 50
v 399 59
v 400 48
v 401 48
v 402 0
v 403 49
v 404 45
v 405 114
v 406 95
v 407 16
v 408 10
v 409 63
v 410 25
v 411 67
v 412 70
v 413 116
v 414 3
v 415 119
v 416 29
v 417 109
v 418 26
v 419 66
v 420 118
v 421 13
v 422 52
v 423 31
v 424 2
v 425 75
v 426 97
v 427 33
v 428 86
v 429 6
v 430 8
v 431 107
v 432 0
v 433 65
v 434 42
v 435 112
v 436 76
v 437 6
v 438 5
v 439 64
v 440 90
v 441 62
v 442 45
v 443 83
v 444 71
v 445 99
v 446 37
v 447 64
v 448 85
v 449 79
v 450 40
v 451 129
v 452 103
v 453 73
v 454 11
v 455 58
v 456 79
v 457 120
v 458 82
v 459 35
v 460 93
v 461 38
v 462 69
v 463 10
v 464 26
v 465 93
v 466 58
v 467 21
v 468 3
v 469 32
v 470 43
v 471 36
v 472 45
v 473 78
v 474 88
v 475 53
v 476 118
v 477 10
v 478 68
v 479 72
v 480 69
v 481 35
v 482 0
v 483 127
v 484 123
v 485 62
v 486 78
v 487 87
v 488 16
v 489 34
v 490 76
v 491 9
v 492 89
v 493 37
v 494 4
v 495 13
v 496 113
v 497 128
v 498 111
v 499 45
v 500 86
